c SAT Generator for power-law distributed variable frequencies
c -g u -v 20 -c 91 -k 3 -p 2.750000 -b 3.200000 -f /home/schmidt/Devel/ni-kop-sat/data/ensemble/ruf20-91/ruf20-91-455 -u 1 -U 1 -s 3152081343
p cnf 20 91
-2 -9 15 0
1 8 -14 0
-3 -4 15 0
-4 -7 -15 0
-1 13 15 0
10 -13 14 0
-11 -18 19 0
-3 -4 -19 0
3 -4 17 0
7 -14 -15 0
-10 -11 -12 0
-10 -13 14 0
10 -15 -19 0
3 4 8 0
-1 13 16 0
2 -13 -20 0
-5 -8 -10 0
-8 -9 12 0
3 11 15 0
8 -9 18 0
1 -10 -12 0
2 -8 -14 0
-7 8 11 0
-4 11 13 0
4 14 19 0
-1 -4 18 0
-14 -17 -18 0
1 9 10 0
-7 12 -17 0
-1 9 14 0
-10 15 -20 0
3 9 11 0
10 -11 -18 0
8 -11 12 0
13 -14 -20 0
1 -11 -18 0
18 -19 20 0
-7 -12 16 0
-1 -8 -11 0
-13 -15 -16 0
-11 13 17 0
1 6 17 0
3 7 -18 0
-17 18 -20 0
4 -7 10 0
-5 -7 10 0
-5 -11 -15 0
-6 -17 20 0
9 -11 -17 0
2 6 18 0
-3 -5 -17 0
-4 13 18 0
1 17 18 0
2 7 16 0
6 -7 13 0
-1 5 -15 0
2 -3 -7 0
-9 14 17 0
-3 -6 -17 0
-1 11 12 0
-15 17 -20 0
-4 13 -20 0
2 -12 -18 0
5 -9 16 0
-4 -7 18 0
11 -12 19 0
12 18 19 0
8 -10 -19 0
13 15 -19 0
2 13 15 0
12 -18 20 0
-4 -5 17 0
-10 -16 -20 0
-10 -18 -20 0
-2 -4 -18 0
-1 -2 -10 0
10 14 -17 0
6 -13 -16 0
6 -7 14 0
-1 -8 -10 0
6 -8 13 0
-2 18 20 0
3 5 -14 0
4 6 9 0
5 -8 -14 0
-4 -10 19 0
9 -15 -20 0
-13 -15 18 0
-11 14 16 0
-4 12 15 0
3 -7 -20 0
